
  18    0


   0  11 2 3 4 5 6 7 13 14 15 16 17 
   6   3 12 9 8 
   1   3 11 9 8 
   5   2 9 8 
   3   2 9 8 
   2   1 10 
   3   1 8 
   7   1 18
  10   1 18
   5   1 18
   8   1 18
   4   1 18
   9   1 18
   2   1 18
   3   1 18
   5   1 18
   4   1 18
   0   0 
